NAME          
ROWS
 N  OBJ
 L  c1
 L  c2
 L  c3
COLUMNS
    MARKER    'MARKER'                 'INTORG'
    x[1]      c1        396
    x[1]      c2        692
    x[1]      c3        380
    x[1]      OBJ       -149
    x[2]      c1        289
    x[2]      c2        788
    x[2]      c3        323
    x[2]      OBJ       -223
    x[3]      c1        900
    x[3]      c2        122
    x[3]      c3        624
    x[3]      OBJ       -96
    x[4]      c1        864
    x[4]      c2        474
    x[4]      c3        775
    x[4]      OBJ       -696
    x[5]      c1        414
    x[5]      c2        515
    x[5]      c3        915
    x[5]      OBJ       -541
    x[6]      c1        419
    x[6]      c2        950
    x[6]      c3        224
    x[6]      OBJ       -268
    x[7]      c1        565
    x[7]      c2        24
    x[7]      c3        357
    x[7]      OBJ       -747
    x[8]      c1        321
    x[8]      c2        171
    x[8]      c3        637
    x[8]      OBJ       -872
    x[9]      c1        444
    x[9]      c2        723
    x[9]      c3        490
    x[9]      OBJ       -848
    x[10]     c1        837
    x[10]     c2        138
    x[10]     c3        174
    x[10]     OBJ       -581
    x[11]     c1        408
    x[11]     c2        391
    x[11]     c3        885
    x[11]     OBJ       -118
    x[12]     c1        150
    x[12]     c2        498
    x[12]     c3        109
    x[12]     OBJ       -727
    x[13]     c1        79
    x[13]     c2        525
    x[13]     c3        381
    x[13]     OBJ       -901
    x[14]     c1        190
    x[14]     c2        486
    x[14]     c3        392
    x[14]     OBJ       -584
    x[15]     c1        228
    x[15]     c2        806
    x[15]     c3        645
    x[15]     OBJ       -452
    x[16]     c1        730
    x[16]     c2        600
    x[16]     c3        845
    x[16]     OBJ       -198
    x[17]     c1        554
    x[17]     c2        37
    x[17]     c3        986
    x[17]     OBJ       -439
    x[18]     c1        460
    x[18]     c2        867
    x[18]     c3        764
    x[18]     OBJ       -472
    x[19]     c1        517
    x[19]     c2        580
    x[19]     c3        745
    x[19]     OBJ       -140
    x[20]     c1        144
    x[20]     c2        438
    x[20]     c3        933
    x[20]     OBJ       -965
    x[21]     c1        159
    x[21]     c2        850
    x[21]     c3        794
    x[21]     OBJ       -50
    x[22]     c1        950
    x[22]     c2        954
    x[22]     c3        902
    x[22]     OBJ       -967
    x[23]     c1        404
    x[23]     c2        736
    x[23]     c3        52
    x[23]     OBJ       -875
    x[24]     c1        584
    x[24]     c2        621
    x[24]     c3        65
    x[24]     OBJ       -430
    x[25]     c1        379
    x[25]     c2        530
    x[25]     c3        517
    x[25]     OBJ       -932
    x[26]     c1        230
    x[26]     c2        904
    x[26]     c3        245
    x[26]     OBJ       -207
    x[27]     c1        817
    x[27]     c2        752
    x[27]     c3        476
    x[27]     OBJ       -226
    x[28]     c1        564
    x[28]     c2        72
    x[28]     c3        419
    x[28]     OBJ       -813
    x[29]     c1        589
    x[29]     c2        933
    x[29]     c3        747
    x[29]     OBJ       -566
    x[30]     c1        485
    x[30]     c2        61
    x[30]     c3        657
    x[30]     OBJ       -291
RHS
    rhs       c1        7035
    rhs       c2        8119
    rhs       c3        8229
RANGES
BOUNDS
 BV bounds    x[1]
 BV bounds    x[2]
 BV bounds    x[3]
 BV bounds    x[4]
 BV bounds    x[5]
 BV bounds    x[6]
 BV bounds    x[7]
 BV bounds    x[8]
 BV bounds    x[9]
 BV bounds    x[10]
 BV bounds    x[11]
 BV bounds    x[12]
 BV bounds    x[13]
 BV bounds    x[14]
 BV bounds    x[15]
 BV bounds    x[16]
 BV bounds    x[17]
 BV bounds    x[18]
 BV bounds    x[19]
 BV bounds    x[20]
 BV bounds    x[21]
 BV bounds    x[22]
 BV bounds    x[23]
 BV bounds    x[24]
 BV bounds    x[25]
 BV bounds    x[26]
 BV bounds    x[27]
 BV bounds    x[28]
 BV bounds    x[29]
 BV bounds    x[30]
ENDATA
